(set-info :smt-lib-version 2.6)
(set-logic QF_S)
(set-info :source |
Generated by: Murphy Berzish, Mitja Kulczynski, Federico Mora, Florin Manea, Joel Day, Dirk Nowotka, Vijay Ganesh, Zhengyang Lu
Generated on: 2020-10-01
Description: Translated from a collection of real-world regex queries, AutomataArk, collected by Loris D’Antoni and Fang Wang: https://github.com/lorisdanto/automatark
Application: Evaluate solvers on real-world regex queries
Target solver: Z3str3RE, CVC4, OSTRICH, Z3seq, Z3str3, Z3-Trau
Publications: Berzish, M., Kulczynski, M., Mora, F., Manea, F., Day, J. D., Nowotka, D., & Ganesh, V. (2021, July). An SMT solver for regular expressions and linear arithmetic over string length. In CAV 2021.
|)
(set-info :license "https://creativecommons.org/licenses/by/4.0/")
(set-info :category "industrial")
(set-info :status sat)

(declare-const X String)
(assert (str.in_re X (str.to_re ".cfg/searchfast/\u{22}007A-SpyWebsitehttp://supremetoolbar.com/index.php?tpid=\u{a}")))
(assert (not (str.in_re X (re.++ (str.to_re "/") (re.opt (str.to_re "00356")) (re.union (str.to_re "99") (str.to_re "79") (str.to_re "77") (str.to_re "21") (str.to_re "27") (str.to_re "22") (str.to_re "25")) ((_ re.loop 6 6) (re.range "0" "9")) (str.to_re "/g\u{a}")))))
(assert (not (str.in_re X (re.++ (str.to_re "\u{a}") (re.+ (re.++ (re.* (re.union (re.range "a" "z") (re.range "A" "Z") (re.range "0" "9") (str.to_re "-"))) (re.+ (str.to_re ".")))) (re.* (re.union (re.range "a" "z") (re.range "A" "Z") (re.range "0" "9")))))))
(assert (not (str.in_re X (re.++ (str.to_re "User-Agent:") (re.+ (re.union (str.to_re " ") (str.to_re "\u{9}") (str.to_re "\u{a}") (str.to_re "\u{c}") (str.to_re "\u{d}"))) (str.to_re "}{Password:\u{1b}Anal\u{a}")))))
(assert (not (str.in_re X (re.++ (str.to_re "\u{a}") (re.+ (re.union (re.range "0" "9") (re.range "a" "z") (str.to_re "_") (str.to_re "-"))) (str.to_re ".") ((_ re.loop 1 3) (re.union (re.range "0" "9") (re.range "a" "z") (str.to_re "_") (str.to_re "-")))))))
(check-sat)

(exit)
